letting n =  10
letting blocks =  [[1, 1], [1, 2], [1, 4], [1, 8], [2, 2], [2, 3], [2, 8], [2, 9], [3, 1], [3, 2], [3, 4], [3, 8], [3, 10], [4, 4], [4, 5], [4, 6], [4, 9], [4, 10], [5, 2], [5, 5], [5, 7], [5, 10], [6, 2], [6, 10], [7, 1], [7, 9], [7, 10], [8, 4], [8, 7], [8, 10], [9, 3], [9, 4], [9, 5], [9, 6], [9, 9], [10, 1], [10, 2], [10, 3]]
